0 68 95
1 87 99
2 79 99
3 97 99
4 97 99
5 92 98
6 91 96
7 92 94
8 51 93
9 88 91
10 88 90
11 65 88
12 83 87
13 85 87
14 62 86
15 82 84
16 80 83
17 39 82
18 70 80
19 68 81
20 79 82
21 78 81
22 79 80
23 73 79
24 74 80
25 67 80
26 78 78
27 69 77
28 57 75
29 69 73
30 66 72
31 50 71
32 65 71
33 65 71
34 66 69
35 61 66
36 53 64
37 62 63
38 59 62
39 41 60
40 54 56
41 45 57
42 58 58
43 57 57
44 54 56
45 55 55
46 32 54
47 48 52
48 45 48
49 44 46
50 38 44
51 43 44
52 36 43
53 35 44
54 35 43
55 42 44
56 41 43
57 42 42
58 41 41
59 40 40
60 36 39
61 38 38
62 36 37
63 35 35
64 23 34
65 34 35
66 25 34
67 32 33
68 25 31
69 10 32
70 30 30
71 19 29
72 27 27
73 26 26
74 20 24
75 22 22
76 22 22
77 17 20
78 16 21
79 16 22
80 18 22
81 18 21
82 20 21
83 20 20
84 17 19
85 18 18
86 16 17
87 11 13
88 6 14
89 13 14
90 14 14
91 9 13
92 12 12
93 12 12
94 11 12
95 6 11
96 9 12
97 10 11
98 10 10
99 5 8
100 1 7
101 4 8
102 7 7
103 6 6
104 3 5
105 1 4
106 2 3
107 2 2
108 1 1

